100
32
10
1
17
2
12
1
6
14
26
17
24
23
23
17
1
8
19
20
10
8
1
29
15
27
15
5
32
14
22
3
17
14
19
25
6
27
2
5
1
9
27
25
27
25
9
26
11
19
17
16
2
7
25
22
11
20
10
6
30
10
5
24
2
4
7
32
23
3
8
7
4
6
13
3
14
29
20
1
13
4
19
1
2
14
22
19
2
4
8
20
13
3
4
21
24
5
11
15
5
5